GLPSOL--GLPK LP/MIP Solver 5.0
Parameter(s) specified in the command line:
 --lp ../modeles/4_99.lp --log 4_99.log
Reading problem data from '../modeles/4_99.lp'...
413 rows, 800 columns, 2792 non-zeros
396 integer variables, all of which are binary
1223 lines were read
GLPK Integer Optimizer 5.0
413 rows, 800 columns, 2792 non-zeros
396 integer variables, all of which are binary
Preprocessing...
392 constraint coefficient(s) were reduced
413 rows, 796 columns, 2788 non-zeros
396 integer variables, all of which are binary
Scaling...
 A: min|aij| =  4.081e-04  max|aij| =  4.000e+00  ratio =  9.801e+03
GM: min|aij| =  1.005e-01  max|aij| =  9.950e+00  ratio =  9.900e+01
EQ: min|aij| =  1.010e-02  max|aij| =  1.000e+00  ratio =  9.900e+01
2N: min|aij| =  7.812e-03  max|aij| =  1.742e+00  ratio =  2.230e+02
Constructing initial basis...
Size of triangular part is 413
Solving LP relaxation...
GLPK Simplex Optimizer 5.0
413 rows, 796 columns, 2788 non-zeros
      0: obj =   8.000000000e+00 inf =   1.950e+01 (9)
     35: obj =   4.992346939e-01 inf =   0.000e+00 (0)
*   160: obj =  -1.999263468e+00 inf =   2.379e-15 (0)
OPTIMAL LP SOLUTION FOUND
Integer optimization begins...
Long-step dual simplex will be used
+   160: mip =     not found yet >=              -inf        (1; 0)
+   217: >>>>>  -1.999263468e+00 >=  -1.999263468e+00 < 0.1% (54; 0)
+   217: mip =  -1.999263468e+00 >=     tree is empty   0.0% (0; 107)
INTEGER OPTIMAL SOLUTION FOUND
Time used:   0.0 secs
Memory used: 1.2 Mb (1257126 bytes)
